Minimize
	value: tt

Subject to
tt + 1000 s_1_1 > 0.0
tt - t_1_1 - 1002.654428 s_1_1  + 2.654428 s_1_7  > -973.311294
tt + 1000 s_2_1 > 0.0
tt - t_2_1 - 1002.377314 s_2_1  + 2.377314 s_2_7  > -959.556875
tt + 1000 s_1_2 > 0.0
tt - t_1_2 - 1002.654428 s_1_2  + 2.654428 s_1_8  > -972.011478
tt + 1000 s_2_2 > 0.0
tt - t_2_2 - 1002.377314 s_2_2  + 2.377314 s_2_8  > -957.886878
tt + 1000 s_1_3 > 0.0
tt - t_1_3 - 1002.654428 s_1_3  + 2.654428 s_1_8  > -952.104000
tt + 1000 s_2_3 > 0.0
tt - t_2_3 - 1002.377314 s_2_3  + 2.377314 s_2_8  > -931.141600
tt + 1000 s_1_4 > 0.0
tt - t_1_4 - 1005.308856 s_1_4  + 2.654428 s_1_3  + 2.654428 s_1_8  > -974.820500
tt + 1000 s_2_4 > 0.0
tt - t_2_4 - 1004.754628 s_2_4  + 2.377314 s_2_3  + 2.377314 s_2_8  > -961.281000
tt + 1000 s_1_5 > 0.0
tt - t_1_5 - 1005.308856 s_1_5  + 2.654428 s_1_7  + 2.654428 s_1_8  > -976.191350
tt + 1000 s_2_5 > 0.0
tt - t_2_5 - 1004.754628 s_2_5  + 2.377314 s_2_7  + 2.377314 s_2_8  > -965.206411
tt + 1000 s_1_6 > 0.0
tt - t_1_6 - 1013.272139 s_1_6  + 2.654428 s_1_5  + 2.654428 s_1_1  + 2.654428 s_1_4  + 2.654428 s_1_2  + 2.654428 s_1_3  > -998.861400
tt + 1000 s_2_6 > 0.0
tt - t_2_6 - 1011.886570 s_2_6  + 2.377314 s_2_5  + 2.377314 s_2_1  + 2.377314 s_2_4  + 2.377314 s_2_2  + 2.377314 s_2_3  > -987.818400
tt + 1000 s_1_7 > 0.0
tt - t_1_7 - 1000.000000 s_1_7  > -947.486122
tt + 1000 s_2_7 > 0.0
tt - t_2_7 - 1000.000000 s_2_7  > -910.703656
tt + 1000 s_1_8 > 0.0
tt - t_1_8 - 1000.000000 s_1_8  > -899.251800
tt + 1000 s_2_8 > 0.0
tt - t_2_8 - 1000.000000 s_2_8  > -929.052200
s_1_1 + s_2_1 = 1
s_1_2 + s_2_2 = 1
s_1_3 + s_2_3 = 1
s_1_4 + s_2_4 = 1
s_1_5 + s_2_5 = 1
s_1_6 + s_2_6 = 1
s_1_7 + s_2_7 = 1
s_1_8 + s_2_8 = 1
s_1_1 + s_1_2 + 1000 r_1_1_2 >= 2
- s_1_1 - s_1_2 - 1000 r_1_1_2 >= -1001
t_1_1 - t_1_2 - 1000.000000 u_1_1_2 - 2.654428 s_1_2  + 2.654428 s_1_8  + 2000.000000 r_1_1_2 > -972.011478
s_2_1 + s_2_2 + 1000 r_2_1_2 >= 2
- s_2_1 - s_2_2 - 1000 r_2_1_2 >= -1001
t_2_1 - t_2_2 - 1000.000000 u_2_1_2 - 2.377314 s_2_2  + 2.377314 s_2_8  + 2000.000000 r_2_1_2 > -957.886878
s_1_1 + s_1_3 + 1000 r_1_1_3 >= 2
- s_1_1 - s_1_3 - 1000 r_1_1_3 >= -1001
t_1_1 - t_1_3 - 1000.000000 u_1_1_3 - 2.654428 s_1_3  + 2.654428 s_1_8  + 2000.000000 r_1_1_3 > -952.104000
s_2_1 + s_2_3 + 1000 r_2_1_3 >= 2
- s_2_1 - s_2_3 - 1000 r_2_1_3 >= -1001
t_2_1 - t_2_3 - 1000.000000 u_2_1_3 - 2.377314 s_2_3  + 2.377314 s_2_8  + 2000.000000 r_2_1_3 > -931.141600
s_1_1 + s_1_4 + 1000 r_1_1_4 >= 2
- s_1_1 - s_1_4 - 1000 r_1_1_4 >= -1001
t_1_1 - t_1_4 - 1000.000000 u_1_1_4 - 5.308856 s_1_4  + 2.654428 s_1_3  + 2.654428 s_1_8  + 2000.000000 r_1_1_4 > -974.820500
s_2_1 + s_2_4 + 1000 r_2_1_4 >= 2
- s_2_1 - s_2_4 - 1000 r_2_1_4 >= -1001
t_2_1 - t_2_4 - 1000.000000 u_2_1_4 - 4.754628 s_2_4  + 2.377314 s_2_3  + 2.377314 s_2_8  + 2000.000000 r_2_1_4 > -961.281000
s_1_1 + s_1_5 + 1000 r_1_1_5 >= 2
- s_1_1 - s_1_5 - 1000 r_1_1_5 >= -1001
t_1_1 - t_1_5 - 1000.000000 u_1_1_5 - 5.308856 s_1_5  + 2.654428 s_1_7  + 2.654428 s_1_8  + 2000.000000 r_1_1_5 > -976.191350
s_2_1 + s_2_5 + 1000 r_2_1_5 >= 2
- s_2_1 - s_2_5 - 1000 r_2_1_5 >= -1001
t_2_1 - t_2_5 - 1000.000000 u_2_1_5 - 4.754628 s_2_5  + 2.377314 s_2_7  + 2.377314 s_2_8  + 2000.000000 r_2_1_5 > -965.206411
t_1_6 - t_1_1 - 1002.654428 s_1_1  + 2.654428 s_1_7  > -973.311294
t_1_6 - t_2_1 - 1002.377314 s_2_1  + 2.377314 s_2_7  > -959.556875
t_2_6 - t_1_1 - 1002.654428 s_1_1  + 2.654428 s_1_7  > -973.311294
t_2_6 - t_2_1 - 1002.377314 s_2_1  + 2.377314 s_2_7  > -959.556875
t_1_1 - t_1_7 - 1000.000000 s_1_7  > -947.486122
t_1_1 - t_2_7 - 1000.000000 s_2_7  > -910.703656
t_2_1 - t_1_7 - 1000.000000 s_1_7  > -947.486122
t_2_1 - t_2_7 - 1000.000000 s_2_7  > -910.703656
s_1_1 + s_1_8 + 1000 r_1_1_8 >= 2
- s_1_1 - s_1_8 - 1000 r_1_1_8 >= -1001
t_1_1 - t_1_8 - 1000.000000 u_1_1_8 - 0.000000 s_1_8  + 2000.000000 r_1_1_8 > -899.251800
s_2_1 + s_2_8 + 1000 r_2_1_8 >= 2
- s_2_1 - s_2_8 - 1000 r_2_1_8 >= -1001
t_2_1 - t_2_8 - 1000.000000 u_2_1_8 - 0.000000 s_2_8  + 2000.000000 r_2_1_8 > -929.052200
s_1_2 + s_1_1 + 1000 r_1_1_2 >= 2
- s_1_2 - s_1_1 - 1000 r_1_1_2 >= -1001
t_1_2 - t_1_1 + 1000.000000 u_1_1_2 - 2.654428 s_1_1  + 2.654428 s_1_7  + 2000.000000 r_1_1_2 > 26.688706
s_2_2 + s_2_1 + 1000 r_2_1_2 >= 2
- s_2_2 - s_2_1 - 1000 r_2_1_2 >= -1001
t_2_2 - t_2_1 + 1000.000000 u_2_1_2 - 2.377314 s_2_1  + 2.377314 s_2_7  + 2000.000000 r_2_1_2 > 40.443125
s_1_2 + s_1_3 + 1000 r_1_2_3 >= 2
- s_1_2 - s_1_3 - 1000 r_1_2_3 >= -1001
t_1_2 - t_1_3 - 1000.000000 u_1_2_3 - 2.654428 s_1_3  + 2.654428 s_1_8  + 2000.000000 r_1_2_3 > -952.104000
s_2_2 + s_2_3 + 1000 r_2_2_3 >= 2
- s_2_2 - s_2_3 - 1000 r_2_2_3 >= -1001
t_2_2 - t_2_3 - 1000.000000 u_2_2_3 - 2.377314 s_2_3  + 2.377314 s_2_8  + 2000.000000 r_2_2_3 > -931.141600
s_1_2 + s_1_4 + 1000 r_1_2_4 >= 2
- s_1_2 - s_1_4 - 1000 r_1_2_4 >= -1001
t_1_2 - t_1_4 - 1000.000000 u_1_2_4 - 5.308856 s_1_4  + 2.654428 s_1_3  + 2.654428 s_1_8  + 2000.000000 r_1_2_4 > -974.820500
s_2_2 + s_2_4 + 1000 r_2_2_4 >= 2
- s_2_2 - s_2_4 - 1000 r_2_2_4 >= -1001
t_2_2 - t_2_4 - 1000.000000 u_2_2_4 - 4.754628 s_2_4  + 2.377314 s_2_3  + 2.377314 s_2_8  + 2000.000000 r_2_2_4 > -961.281000
s_1_2 + s_1_5 + 1000 r_1_2_5 >= 2
- s_1_2 - s_1_5 - 1000 r_1_2_5 >= -1001
t_1_2 - t_1_5 - 1000.000000 u_1_2_5 - 5.308856 s_1_5  + 2.654428 s_1_7  + 2.654428 s_1_8  + 2000.000000 r_1_2_5 > -976.191350
s_2_2 + s_2_5 + 1000 r_2_2_5 >= 2
- s_2_2 - s_2_5 - 1000 r_2_2_5 >= -1001
t_2_2 - t_2_5 - 1000.000000 u_2_2_5 - 4.754628 s_2_5  + 2.377314 s_2_7  + 2.377314 s_2_8  + 2000.000000 r_2_2_5 > -965.206411
t_1_6 - t_1_2 - 1002.654428 s_1_2  + 2.654428 s_1_8  > -972.011478
t_1_6 - t_2_2 - 1002.377314 s_2_2  + 2.377314 s_2_8  > -957.886878
t_2_6 - t_1_2 - 1002.654428 s_1_2  + 2.654428 s_1_8  > -972.011478
t_2_6 - t_2_2 - 1002.377314 s_2_2  + 2.377314 s_2_8  > -957.886878
s_1_2 + s_1_7 + 1000 r_1_2_7 >= 2
- s_1_2 - s_1_7 - 1000 r_1_2_7 >= -1001
t_1_2 - t_1_7 - 1000.000000 u_1_2_7 - 0.000000 s_1_7  + 2000.000000 r_1_2_7 > -947.486122
s_2_2 + s_2_7 + 1000 r_2_2_7 >= 2
- s_2_2 - s_2_7 - 1000 r_2_2_7 >= -1001
t_2_2 - t_2_7 - 1000.000000 u_2_2_7 - 0.000000 s_2_7  + 2000.000000 r_2_2_7 > -910.703656
t_1_2 - t_1_8 - 1000.000000 s_1_8  > -899.251800
t_1_2 - t_2_8 - 1000.000000 s_2_8  > -929.052200
t_2_2 - t_1_8 - 1000.000000 s_1_8  > -899.251800
t_2_2 - t_2_8 - 1000.000000 s_2_8  > -929.052200
s_1_3 + s_1_1 + 1000 r_1_1_3 >= 2
- s_1_3 - s_1_1 - 1000 r_1_1_3 >= -1001
t_1_3 - t_1_1 + 1000.000000 u_1_1_3 - 2.654428 s_1_1  + 2.654428 s_1_7  + 2000.000000 r_1_1_3 > 26.688706
s_2_3 + s_2_1 + 1000 r_2_1_3 >= 2
- s_2_3 - s_2_1 - 1000 r_2_1_3 >= -1001
t_2_3 - t_2_1 + 1000.000000 u_2_1_3 - 2.377314 s_2_1  + 2.377314 s_2_7  + 2000.000000 r_2_1_3 > 40.443125
s_1_3 + s_1_2 + 1000 r_1_2_3 >= 2
- s_1_3 - s_1_2 - 1000 r_1_2_3 >= -1001
t_1_3 - t_1_2 + 1000.000000 u_1_2_3 - 2.654428 s_1_2  + 2.654428 s_1_8  + 2000.000000 r_1_2_3 > 27.988522
s_2_3 + s_2_2 + 1000 r_2_2_3 >= 2
- s_2_3 - s_2_2 - 1000 r_2_2_3 >= -1001
t_2_3 - t_2_2 + 1000.000000 u_2_2_3 - 2.377314 s_2_2  + 2.377314 s_2_8  + 2000.000000 r_2_2_3 > 42.113122
t_1_4 - t_1_3 - 1002.654428 s_1_3  + 2.654428 s_1_8  > -952.104000
t_1_4 - t_2_3 - 1002.377314 s_2_3  + 2.377314 s_2_8  > -931.141600
t_2_4 - t_1_3 - 1002.654428 s_1_3  + 2.654428 s_1_8  > -952.104000
t_2_4 - t_2_3 - 1002.377314 s_2_3  + 2.377314 s_2_8  > -931.141600
s_1_3 + s_1_5 + 1000 r_1_3_5 >= 2
- s_1_3 - s_1_5 - 1000 r_1_3_5 >= -1001
t_1_3 - t_1_5 - 1000.000000 u_1_3_5 - 5.308856 s_1_5  + 2.654428 s_1_7  + 2.654428 s_1_8  + 2000.000000 r_1_3_5 > -976.191350
s_2_3 + s_2_5 + 1000 r_2_3_5 >= 2
- s_2_3 - s_2_5 - 1000 r_2_3_5 >= -1001
t_2_3 - t_2_5 - 1000.000000 u_2_3_5 - 4.754628 s_2_5  + 2.377314 s_2_7  + 2.377314 s_2_8  + 2000.000000 r_2_3_5 > -965.206411
t_1_6 - t_1_3 - 1002.654428 s_1_3  + 2.654428 s_1_8  > -952.104000
t_1_6 - t_2_3 - 1002.377314 s_2_3  + 2.377314 s_2_8  > -931.141600
t_2_6 - t_1_3 - 1002.654428 s_1_3  + 2.654428 s_1_8  > -952.104000
t_2_6 - t_2_3 - 1002.377314 s_2_3  + 2.377314 s_2_8  > -931.141600
s_1_3 + s_1_7 + 1000 r_1_3_7 >= 2
- s_1_3 - s_1_7 - 1000 r_1_3_7 >= -1001
t_1_3 - t_1_7 - 1000.000000 u_1_3_7 - 0.000000 s_1_7  + 2000.000000 r_1_3_7 > -947.486122
s_2_3 + s_2_7 + 1000 r_2_3_7 >= 2
- s_2_3 - s_2_7 - 1000 r_2_3_7 >= -1001
t_2_3 - t_2_7 - 1000.000000 u_2_3_7 - 0.000000 s_2_7  + 2000.000000 r_2_3_7 > -910.703656
t_1_3 - t_1_8 - 1000.000000 s_1_8  > -899.251800
t_1_3 - t_2_8 - 1000.000000 s_2_8  > -929.052200
t_2_3 - t_1_8 - 1000.000000 s_1_8  > -899.251800
t_2_3 - t_2_8 - 1000.000000 s_2_8  > -929.052200
s_1_4 + s_1_1 + 1000 r_1_1_4 >= 2
- s_1_4 - s_1_1 - 1000 r_1_1_4 >= -1001
t_1_4 - t_1_1 + 1000.000000 u_1_1_4 - 2.654428 s_1_1  + 2.654428 s_1_7  + 2000.000000 r_1_1_4 > 26.688706
s_2_4 + s_2_1 + 1000 r_2_1_4 >= 2
- s_2_4 - s_2_1 - 1000 r_2_1_4 >= -1001
t_2_4 - t_2_1 + 1000.000000 u_2_1_4 - 2.377314 s_2_1  + 2.377314 s_2_7  + 2000.000000 r_2_1_4 > 40.443125
s_1_4 + s_1_2 + 1000 r_1_2_4 >= 2
- s_1_4 - s_1_2 - 1000 r_1_2_4 >= -1001
t_1_4 - t_1_2 + 1000.000000 u_1_2_4 - 2.654428 s_1_2  + 2.654428 s_1_8  + 2000.000000 r_1_2_4 > 27.988522
s_2_4 + s_2_2 + 1000 r_2_2_4 >= 2
- s_2_4 - s_2_2 - 1000 r_2_2_4 >= -1001
t_2_4 - t_2_2 + 1000.000000 u_2_2_4 - 2.377314 s_2_2  + 2.377314 s_2_8  + 2000.000000 r_2_2_4 > 42.113122
s_1_4 + s_1_5 + 1000 r_1_4_5 >= 2
- s_1_4 - s_1_5 - 1000 r_1_4_5 >= -1001
t_1_4 - t_1_5 - 1000.000000 u_1_4_5 - 5.308856 s_1_5  + 2.654428 s_1_7  + 2.654428 s_1_8  + 2000.000000 r_1_4_5 > -976.191350
s_2_4 + s_2_5 + 1000 r_2_4_5 >= 2
- s_2_4 - s_2_5 - 1000 r_2_4_5 >= -1001
t_2_4 - t_2_5 - 1000.000000 u_2_4_5 - 4.754628 s_2_5  + 2.377314 s_2_7  + 2.377314 s_2_8  + 2000.000000 r_2_4_5 > -965.206411
t_1_6 - t_1_4 - 1005.308856 s_1_4  + 2.654428 s_1_3  + 2.654428 s_1_8  > -974.820500
t_1_6 - t_2_4 - 1004.754628 s_2_4  + 2.377314 s_2_3  + 2.377314 s_2_8  > -961.281000
t_2_6 - t_1_4 - 1005.308856 s_1_4  + 2.654428 s_1_3  + 2.654428 s_1_8  > -974.820500
t_2_6 - t_2_4 - 1004.754628 s_2_4  + 2.377314 s_2_3  + 2.377314 s_2_8  > -961.281000
s_1_4 + s_1_7 + 1000 r_1_4_7 >= 2
- s_1_4 - s_1_7 - 1000 r_1_4_7 >= -1001
t_1_4 - t_1_7 - 1000.000000 u_1_4_7 - 0.000000 s_1_7  + 2000.000000 r_1_4_7 > -947.486122
s_2_4 + s_2_7 + 1000 r_2_4_7 >= 2
- s_2_4 - s_2_7 - 1000 r_2_4_7 >= -1001
t_2_4 - t_2_7 - 1000.000000 u_2_4_7 - 0.000000 s_2_7  + 2000.000000 r_2_4_7 > -910.703656
t_1_4 - t_1_8 - 1000.000000 s_1_8  > -899.251800
t_1_4 - t_2_8 - 1000.000000 s_2_8  > -929.052200
t_2_4 - t_1_8 - 1000.000000 s_1_8  > -899.251800
t_2_4 - t_2_8 - 1000.000000 s_2_8  > -929.052200
s_1_5 + s_1_1 + 1000 r_1_1_5 >= 2
- s_1_5 - s_1_1 - 1000 r_1_1_5 >= -1001
t_1_5 - t_1_1 + 1000.000000 u_1_1_5 - 2.654428 s_1_1  + 2.654428 s_1_7  + 2000.000000 r_1_1_5 > 26.688706
s_2_5 + s_2_1 + 1000 r_2_1_5 >= 2
- s_2_5 - s_2_1 - 1000 r_2_1_5 >= -1001
t_2_5 - t_2_1 + 1000.000000 u_2_1_5 - 2.377314 s_2_1  + 2.377314 s_2_7  + 2000.000000 r_2_1_5 > 40.443125
s_1_5 + s_1_2 + 1000 r_1_2_5 >= 2
- s_1_5 - s_1_2 - 1000 r_1_2_5 >= -1001
t_1_5 - t_1_2 + 1000.000000 u_1_2_5 - 2.654428 s_1_2  + 2.654428 s_1_8  + 2000.000000 r_1_2_5 > 27.988522
s_2_5 + s_2_2 + 1000 r_2_2_5 >= 2
- s_2_5 - s_2_2 - 1000 r_2_2_5 >= -1001
t_2_5 - t_2_2 + 1000.000000 u_2_2_5 - 2.377314 s_2_2  + 2.377314 s_2_8  + 2000.000000 r_2_2_5 > 42.113122
s_1_5 + s_1_3 + 1000 r_1_3_5 >= 2
- s_1_5 - s_1_3 - 1000 r_1_3_5 >= -1001
t_1_5 - t_1_3 + 1000.000000 u_1_3_5 - 2.654428 s_1_3  + 2.654428 s_1_8  + 2000.000000 r_1_3_5 > 47.896000
s_2_5 + s_2_3 + 1000 r_2_3_5 >= 2
- s_2_5 - s_2_3 - 1000 r_2_3_5 >= -1001
t_2_5 - t_2_3 + 1000.000000 u_2_3_5 - 2.377314 s_2_3  + 2.377314 s_2_8  + 2000.000000 r_2_3_5 > 68.858400
s_1_5 + s_1_4 + 1000 r_1_4_5 >= 2
- s_1_5 - s_1_4 - 1000 r_1_4_5 >= -1001
t_1_5 - t_1_4 + 1000.000000 u_1_4_5 - 5.308856 s_1_4  + 2.654428 s_1_3  + 2.654428 s_1_8  + 2000.000000 r_1_4_5 > 25.179500
s_2_5 + s_2_4 + 1000 r_2_4_5 >= 2
- s_2_5 - s_2_4 - 1000 r_2_4_5 >= -1001
t_2_5 - t_2_4 + 1000.000000 u_2_4_5 - 4.754628 s_2_4  + 2.377314 s_2_3  + 2.377314 s_2_8  + 2000.000000 r_2_4_5 > 38.719000
t_1_6 - t_1_5 - 1005.308856 s_1_5  + 2.654428 s_1_7  + 2.654428 s_1_8  > -976.191350
t_1_6 - t_2_5 - 1004.754628 s_2_5  + 2.377314 s_2_7  + 2.377314 s_2_8  > -965.206411
t_2_6 - t_1_5 - 1005.308856 s_1_5  + 2.654428 s_1_7  + 2.654428 s_1_8  > -976.191350
t_2_6 - t_2_5 - 1004.754628 s_2_5  + 2.377314 s_2_7  + 2.377314 s_2_8  > -965.206411
t_1_5 - t_1_7 - 1000.000000 s_1_7  > -947.486122
t_1_5 - t_2_7 - 1000.000000 s_2_7  > -910.703656
t_2_5 - t_1_7 - 1000.000000 s_1_7  > -947.486122
t_2_5 - t_2_7 - 1000.000000 s_2_7  > -910.703656
t_1_5 - t_1_8 - 1000.000000 s_1_8  > -899.251800
t_1_5 - t_2_8 - 1000.000000 s_2_8  > -929.052200
t_2_5 - t_1_8 - 1000.000000 s_1_8  > -899.251800
t_2_5 - t_2_8 - 1000.000000 s_2_8  > -929.052200
s_1_7 + s_1_2 + 1000 r_1_2_7 >= 2
- s_1_7 - s_1_2 - 1000 r_1_2_7 >= -1001
t_1_7 - t_1_2 + 1000.000000 u_1_2_7 - 2.654428 s_1_2  + 2.654428 s_1_8  + 2000.000000 r_1_2_7 > 27.988522
s_2_7 + s_2_2 + 1000 r_2_2_7 >= 2
- s_2_7 - s_2_2 - 1000 r_2_2_7 >= -1001
t_2_7 - t_2_2 + 1000.000000 u_2_2_7 - 2.377314 s_2_2  + 2.377314 s_2_8  + 2000.000000 r_2_2_7 > 42.113122
s_1_7 + s_1_3 + 1000 r_1_3_7 >= 2
- s_1_7 - s_1_3 - 1000 r_1_3_7 >= -1001
t_1_7 - t_1_3 + 1000.000000 u_1_3_7 - 2.654428 s_1_3  + 2.654428 s_1_8  + 2000.000000 r_1_3_7 > 47.896000
s_2_7 + s_2_3 + 1000 r_2_3_7 >= 2
- s_2_7 - s_2_3 - 1000 r_2_3_7 >= -1001
t_2_7 - t_2_3 + 1000.000000 u_2_3_7 - 2.377314 s_2_3  + 2.377314 s_2_8  + 2000.000000 r_2_3_7 > 68.858400
s_1_7 + s_1_4 + 1000 r_1_4_7 >= 2
- s_1_7 - s_1_4 - 1000 r_1_4_7 >= -1001
t_1_7 - t_1_4 + 1000.000000 u_1_4_7 - 5.308856 s_1_4  + 2.654428 s_1_3  + 2.654428 s_1_8  + 2000.000000 r_1_4_7 > 25.179500
s_2_7 + s_2_4 + 1000 r_2_4_7 >= 2
- s_2_7 - s_2_4 - 1000 r_2_4_7 >= -1001
t_2_7 - t_2_4 + 1000.000000 u_2_4_7 - 4.754628 s_2_4  + 2.377314 s_2_3  + 2.377314 s_2_8  + 2000.000000 r_2_4_7 > 38.719000
s_1_7 + s_1_8 + 1000 r_1_7_8 >= 2
- s_1_7 - s_1_8 - 1000 r_1_7_8 >= -1001
t_1_7 - t_1_8 - 1000.000000 u_1_7_8 - 0.000000 s_1_8  + 2000.000000 r_1_7_8 > -899.251800
s_2_7 + s_2_8 + 1000 r_2_7_8 >= 2
- s_2_7 - s_2_8 - 1000 r_2_7_8 >= -1001
t_2_7 - t_2_8 - 1000.000000 u_2_7_8 - 0.000000 s_2_8  + 2000.000000 r_2_7_8 > -929.052200
s_1_8 + s_1_1 + 1000 r_1_1_8 >= 2
- s_1_8 - s_1_1 - 1000 r_1_1_8 >= -1001
t_1_8 - t_1_1 + 1000.000000 u_1_1_8 - 2.654428 s_1_1  + 2.654428 s_1_7  + 2000.000000 r_1_1_8 > 26.688706
s_2_8 + s_2_1 + 1000 r_2_1_8 >= 2
- s_2_8 - s_2_1 - 1000 r_2_1_8 >= -1001
t_2_8 - t_2_1 + 1000.000000 u_2_1_8 - 2.377314 s_2_1  + 2.377314 s_2_7  + 2000.000000 r_2_1_8 > 40.443125
s_1_8 + s_1_7 + 1000 r_1_7_8 >= 2
- s_1_8 - s_1_7 - 1000 r_1_7_8 >= -1001
t_1_8 - t_1_7 + 1000.000000 u_1_7_8 - 0.000000 s_1_7  + 2000.000000 r_1_7_8 > 52.513878
s_2_8 + s_2_7 + 1000 r_2_7_8 >= 2
- s_2_8 - s_2_7 - 1000 r_2_7_8 >= -1001
t_2_8 - t_2_7 + 1000.000000 u_2_7_8 - 0.000000 s_2_7  + 2000.000000 r_2_7_8 > 89.296344
Binary
s_1_1
s_2_1
s_1_2
s_2_2
s_1_3
s_2_3
s_1_4
s_2_4
s_1_5
s_2_5
s_1_6
s_2_6
s_1_7
s_2_7
s_1_8
s_2_8
u_1_1_2
r_1_1_2
u_2_1_2
r_2_1_2
u_1_1_3
r_1_1_3
u_2_1_3
r_2_1_3
u_1_1_4
r_1_1_4
u_2_1_4
r_2_1_4
u_1_1_5
r_1_1_5
u_2_1_5
r_2_1_5
u_1_1_8
r_1_1_8
u_2_1_8
r_2_1_8
u_1_2_3
r_1_2_3
u_2_2_3
r_2_2_3
u_1_2_4
r_1_2_4
u_2_2_4
r_2_2_4
u_1_2_5
r_1_2_5
u_2_2_5
r_2_2_5
u_1_2_7
r_1_2_7
u_2_2_7
r_2_2_7
u_1_3_5
r_1_3_5
u_2_3_5
r_2_3_5
u_1_3_7
r_1_3_7
u_2_3_7
r_2_3_7
u_1_4_5
r_1_4_5
u_2_4_5
r_2_4_5
u_1_4_7
r_1_4_7
u_2_4_7
r_2_4_7
u_1_7_8
r_1_7_8
u_2_7_8
r_2_7_8

End
